
Gurobi 12.0.3 (linux64) logging started Fri Mar 27 04:56:44 2026

Set parameter LogFile to value "/home/solar-wind/WT_Solar_results_bigM100000_thread4/case24_ieee_rts_theta0.12_epsilon0.08_gurobi_seed30000_num_gen38_N_WDR300_load_scaling_factor1_EIFICA_T24_num_Solar5_num_WT10.txt"
Gurobi Optimizer version 12.0.3 build v12.0.3rc0 (linux64 - "Ubuntu 22.04.5 LTS")

CPU model: Intel(R) Xeon(R) Platinum 8378A CPU @ 3.00GHz, instruction set [SSE2|AVX|AVX2|AVX512]
Thread count: 32 physical cores, 64 logical processors, using up to 4 threads

Non-default parameters:
TimeLimit  14400
MIPGap  0.001
Seed  30000
Threads  4

Academic license 2721591 - for non-commercial use only - registered to fa___@mails.neu.edu.cn
Optimize a model with 835364 rows, 2125 columns and 75302440 nonzeros
Model fingerprint: 0x32d2c169
Model has 912 quadratic objective terms
Coefficient statistics:
  Matrix range     [3e-07, 7e+01]
  Objective range  [2e+01, 6e+01]
  QObjective range [4e-03, 2e-02]
  Bounds range     [0e+00, 0e+00]
  RHS range        [5e-02, 1e+03]
Presolve removed 605953 rows and 0 columns (presolve time = 6s)...
Presolve removed 606827 rows and 0 columns
Presolve time: 7.56s
Presolved: 228537 rows, 2999 columns, 5410888 nonzeros
Presolved model has 912 quadratic objective terms
Elapsed ordering time = 6s
Elapsed ordering time = 22s
Ordering time: 43.51s
Elapsed ordering time = 44s
Elapsed ordering time = 45s
Elapsed ordering time = 51s
Elapsed ordering time = 55s
Elapsed ordering time = 60s
Elapsed ordering time = 61s
Elapsed ordering time = 68s
Elapsed ordering time = 70s
Elapsed ordering time = 76s
Elapsed ordering time = 80s
Elapsed ordering time = 85s
Elapsed ordering time = 86s
Ordering time: 92.68s

Barrier statistics:
 Dense cols : 1225
 AA' NZ     : 3.127e+08
 Factor NZ  : 1.302e+09 (roughly 10.0 GB of memory)
 Factor Ops : 2.450e+13 (roughly 140 seconds per iteration)
 Threads    : 4

                  Objective                Residual
Iter       Primal          Dual         Primal    Dual     Compl     Time
   0   5.55982819e+08 -2.95938175e+08  3.78e+04 9.92e+02  9.91e+05   235s
   1   5.20791057e+08 -2.72624937e+08  3.61e+04 9.49e+02  9.49e+05   235s
   2   5.14436972e+08 -3.35569331e+08  3.59e+04 9.42e+02  9.45e+05   235s
   3   4.69183259e+08 -3.25327061e+08  3.37e+04 8.85e+02  8.89e+05   236s
   4   4.27935670e+08 -4.31520002e+08  3.17e+04 8.31e+02  8.53e+05   236s
   5   3.84197965e+08 -4.75203387e+08  2.95e+04 7.71e+02  8.11e+05   236s
   6   3.40482737e+08 -4.90906950e+08  2.72e+04 7.08e+02  7.46e+05   237s
   7   3.08265180e+08 -5.30645388e+08  2.55e+04 6.59e+02  7.11e+05   237s
   8   2.72245105e+08 -5.50675252e+08  2.34e+04 6.01e+02  6.50e+05   237s
   9   2.41388557e+08 -5.68610196e+08  2.15e+04 5.50e+02  5.96e+05   237s
  10   2.17913247e+08 -5.84867131e+08  2.00e+04 5.09e+02  5.52e+05   237s
  11   1.94162453e+08 -6.03752291e+08  1.83e+04 4.66e+02  5.07e+05   238s
  12   1.75677162e+08 -6.24352726e+08  1.69e+04 4.32e+02  4.70e+05   238s
  13   1.54645562e+08 -6.45593967e+08  1.53e+04 3.90e+02  4.26e+05   238s
  14   1.40007087e+08 -6.67569967e+08  1.42e+04 3.60e+02  3.93e+05   238s
  15   1.23921606e+08 -6.87801281e+08  1.29e+04 3.26e+02  3.57e+05   238s
  16   1.08130429e+08 -7.10185422e+08  1.17e+04 2.91e+02  3.19e+05   239s
  17   9.35899772e+07 -7.37110078e+08  1.04e+04 2.57e+02  2.84e+05   239s
  18   8.31644673e+07 -7.56255928e+08  9.45e+03 2.32e+02  2.57e+05   239s
  19   7.36864849e+07 -7.80114828e+08  8.56e+03 2.09e+02  2.31e+05   239s
  20   6.49704398e+07 -8.03601925e+08  7.70e+03 1.87e+02  2.07e+05   239s
  21   5.65245667e+07 -8.26693855e+08  6.84e+03 1.65e+02  1.83e+05   239s
  22   4.91004990e+07 -8.46845725e+08  6.06e+03 1.45e+02  1.62e+05   240s
  23   4.22225635e+07 -8.65990261e+08  5.31e+03 1.26e+02  1.41e+05   240s
  24   3.63360839e+07 -8.81254515e+08  4.64e+03 1.10e+02  1.23e+05   240s
  25   3.00643599e+07 -8.94881671e+08  3.91e+03 9.18e+01  1.04e+05   240s
  26   2.45295549e+07 -9.02224814e+08  3.22e+03 7.56e+01  8.58e+04   240s
  27   2.02427362e+07 -9.02399957e+08  2.68e+03 6.27e+01  7.16e+04   240s
  28   1.57957527e+07 -8.94437283e+08  2.40e+03 4.92e+01  5.67e+04   241s
  29   1.01135096e+07 -8.66016150e+08  2.17e+03 3.13e+01  3.97e+04   241s
  30   6.98430891e+06 -8.20141176e+08  1.98e+03 2.13e+01  2.90e+04   241s
  31   5.80990614e+06 -7.80297566e+08  1.69e+03 1.75e+01  2.40e+04   241s
  32   4.59128315e+06 -7.31057570e+08  1.43e+03 1.35e+01  1.88e+04   241s
  33   3.56585024e+06 -6.69042630e+08  1.13e+03 1.02e+01  1.44e+04   241s
  34   2.71874256e+06 -6.01867529e+08  8.64e+02 7.53e+00  1.08e+04   242s
  35   2.26807352e+06 -5.74260454e+08  6.89e+02 6.03e+00  9.13e+03   242s
  36   1.84435762e+06 -5.10245972e+08  5.24e+02 4.59e+00  7.04e+03   242s
  37   1.36603460e+06 -5.38889723e+08  3.07e+02 2.91e+00  5.75e+03   242s
  38   1.17620613e+06 -4.73499378e+08  2.34e+02 2.23e+00  4.47e+03   242s
  39   9.56535057e+05 -3.73056168e+08  1.40e+02 1.37e+00  2.86e+03   243s
  40   8.46593880e+05 -3.20737860e+08  9.23e+01 9.09e-01  2.13e+03   243s
  41   7.73773966e+05 -2.68834542e+08  6.25e+01 6.02e-01  1.60e+03   243s
  42   7.33582948e+05 -2.22487893e+08  4.21e+01 4.05e-01  1.22e+03   244s
  43   7.11057597e+05 -1.86205118e+08  2.97e+01 2.85e-01  9.62e+02   245s
  44   6.98550993e+05 -1.59546743e+08  2.22e+01 2.13e-01  7.95e+02   245s
  45   6.94142158e+05 -1.44225729e+08  1.85e+01 1.77e-01  7.05e+02   246s
  46   6.91283009e+05 -1.37310157e+08  1.54e+01 1.48e-01  6.61e+02   247s
  47   6.89980963e+05 -1.28151039e+08  1.37e+01 1.31e-01  6.11e+02   248s
  48   6.88427117e+05 -1.14788787e+08  1.12e+01 1.08e-01  5.42e+02   249s
  49   6.88075931e+05 -1.03092897e+08  8.59e+00 8.25e-02  4.83e+02   250s
  50   6.87937471e+05 -8.54761569e+07  7.07e+00 6.79e-02  3.99e+02   252s
  51   6.87946181e+05 -7.75973724e+07  6.10e+00 5.85e-02  3.64e+02   256s
  52   6.89067866e+05 -6.19736974e+07  4.20e+00 4.03e-02  2.84e+02   258s
  53   6.88376116e+05 -3.96545804e+07  3.05e+00 2.48e-02  1.79e+02   260s
  54   6.87010816e+05 -2.16349748e+07  2.09e+00 1.11e-02  9.76e+01   262s
  55   6.84894203e+05 -1.30447377e+07  7.11e-01 1.10e-03  5.92e+01   269s
  56   6.80557331e+05  3.04049372e+04  1.62e-02 5.67e-03  2.80e+00   324s
  57   6.26540499e+05  3.32423503e+05  2.84e-03 9.92e-04  1.27e+00   376s
  58   6.06130140e+05  5.49587808e+05  3.28e-04 1.12e-04  2.43e-01   475s
  59   5.98721805e+05  5.72044526e+05  7.48e-05 2.46e-05  1.15e-01   857s
  60   5.96066086e+05  5.82489671e+05  1.12e-05 3.69e-06  5.84e-02   955s
  61   5.94989406e+05  5.87876049e+05  1.62e-06 5.33e-07  3.06e-02  1053s
  62   5.94221244e+05  5.91724755e+05  1.71e-07 5.60e-08  1.07e-02  1152s
  63   5.94025220e+05  5.92654060e+05  4.59e-08 1.51e-08  5.90e-03  1249s
  64   5.93908347e+05  5.93240404e+05  1.98e-08 6.50e-09  2.87e-03  1346s
  65   5.93849324e+05  5.93535673e+05  8.07e-09 2.65e-09  1.35e-03  1443s
  66   5.93818947e+05  5.93684309e+05  1.19e-10 3.52e-11  5.79e-04  1547s
  67   5.93811181e+05  5.93722779e+05  1.06e-09 1.52e-11  3.80e-04  1645s
  68   5.93796823e+05  5.93793996e+05  9.93e-09 3.55e-11  1.22e-05  1749s
  69   5.93796395e+05  5.93796072e+05  1.58e-08 8.39e-12  1.39e-06  1856s
  70   5.93796341e+05  5.93796341e+05  8.50e-09 2.56e-10  1.74e-09  1957s

Barrier solved model in 70 iterations and 1956.88 seconds (2098.11 work units)
Optimal objective 5.93796341e+05

